c A SAT instance generated from a 3-CNF formula that had 30 clauses and 10 variables
p cnf 10 30
4 -1 -6 0
5 6 7 0
5 1 -7 0
-2 -6 -10 0
-7 9 8 0
-7 -4 9 0
1 8 -10 0
3 -6 -5 0
1 8 -5 0
-5 7 -1 0
-9 -4 2 0
-6 10 -2 0
-2 -10 -4 0
9 -8 -10 0
6 1 -2 0
-6 -5 10 0
6 9 -4 0
3 -10 2 0
-8 -3 -5 0
-10 -7 -3 0
10 5 6 0
5 -1 -6 0
-1 5 -6 0
10 5 8 0
-8 1 -5 0
10 3 -7 0
1 -4 -3 0
9 2 3 0
-5 7 -10 0
-3 8 6 0
